125
[12,13,14,15,16,17,18,19,20,21,22,23,24,25,26,27,28,29,30,31,32,33,34,35,36,37,38,39,40,41,42,43,44,45,46,47,48,49,50,51,52,53,54,55,56,57,58,59,60,61,62,63,64,65,66,67,68,69,70,71,72,73,74,75,76,77,78,79,80,81,82,83,84,85,86,87]
[8,4,9,6,10,8,7,10,7,8,4,6,8,6,10,4,4,4,8,7,4,10,9,5,5,6,5,7,5,9,10,4,3,7,4,11,10,5,5,5,6,12,5,5,7,9,6,4,11,9,6,5,7,4,6,10,6,6,4,5,9,8,9,5,7,6,10,5,7,5,2,3,7,7,3,7]
